; PUSH cw_3 DUP1 PUSH cw_2 SWAP2 => PUSH cw_2 PUSH cw_3 DUP1
(set-option :produce-proofs true)
; 
(set-info :status unknown)
(declare-fun storage_t ((_ BitVec 256) (_ BitVec 256) Int (_ BitVec 256)) (_ BitVec 256))
(declare-fun w_2 () (_ BitVec 256))
(declare-fun w_3 () (_ BitVec 256))
(declare-fun storage_s ((_ BitVec 256) (_ BitVec 256) Int (_ BitVec 256)) (_ BitVec 256))
(declare-fun exc_halt_t (Int) Bool)
(declare-fun exc_halt_s (Int) Bool)
(declare-fun sc_t (Int) (_ BitVec 6))
(declare-fun stack_t ((_ BitVec 256) (_ BitVec 256) Int (_ BitVec 6)) (_ BitVec 256))
(declare-fun stack_s ((_ BitVec 256) (_ BitVec 256) Int (_ BitVec 6)) (_ BitVec 256))
(declare-fun sc_s (Int) (_ BitVec 6))
(declare-fun used_gas_t ((_ BitVec 256) (_ BitVec 256) Int) Int)
(declare-fun used_gas_s ((_ BitVec 256) (_ BitVec 256) Int) Int)
(assert
 (let (($x6268 (forall ((w (_ BitVec 256)) )(let ((?x9417 (storage_t w_3 w_2 3 w)))
 (let ((?x6225 (storage_s w_3 w_2 4 w)))
 (= ?x6225 ?x9417))))
 ))
 (let (($x10336 (exc_halt_t 3)))
 (let (($x64 (exc_halt_s 4)))
 (let (($x4577 (= $x64 $x10336)))
 (let (($x1151 (forall ((n (_ BitVec 6)) )(let ((?x2012 (sc_t 3)))
 (let (($x7842 (bvsle ?x2012 n)))
 (let ((?x1954 (stack_t w_3 w_2 3 n)))
 (let ((?x5802 (stack_s w_3 w_2 4 n)))
 (let (($x1195 (= ?x5802 ?x1954)))
 (or $x1195 $x7842)))))))
 ))
 (let ((?x2012 (sc_t 3)))
 (let ((?x4305 (sc_s 4)))
 (let (($x3323 (= ?x4305 ?x2012)))
 (let ((?x6702 (used_gas_t w_3 w_2 0)))
 (let ((?x202 (used_gas_s w_3 w_2 0)))
 (let (($x6618 (= ?x202 ?x6702)))
 (let (($x4417 (forall ((w (_ BitVec 256)) )(let ((?x680 (storage_t w_3 w_2 0 w)))
 (let ((?x214 (storage_s w_3 w_2 0 w)))
 (= ?x214 ?x680))))
 ))
 (let (($x56 (exc_halt_t 0)))
 (let (($x57 (exc_halt_s 0)))
 (let (($x58 (= $x57 $x56)))
 (let (($x4046 (forall ((n (_ BitVec 6)) )(let ((?x63 (sc_t 0)))
 (let (($x2695 (bvsle ?x63 n)))
 (let ((?x606 (stack_t w_3 w_2 0 n)))
 (let ((?x1530 (stack_s w_3 w_2 0 n)))
 (let (($x1323 (= ?x1530 ?x606)))
 (or $x1323 $x2695)))))))
 ))
 (let ((?x63 (sc_t 0)))
 (let ((?x72 (sc_s 0)))
 (let (($x73 (= ?x72 ?x63)))
 (let (($x1242 (not (= ((_ extract 6 6) (bvadd (_ bv1 7) (concat (_ bv0 1) (sc_t 2)))) (_ bv0 1)))))
 (let (($x903 (exc_halt_t 2)))
 (let (($x614 (forall ((w (_ BitVec 256)) )(let ((?x8119 (storage_t w_3 w_2 2 w)))
 (let ((?x9417 (storage_t w_3 w_2 3 w)))
 (= ?x9417 ?x8119))))
 ))
 (let (($x5951 (forall ((n (_ BitVec 6)) )(or (bvsle (bvadd (_ bv63 6) (sc_t 2)) n) (= (stack_t w_3 w_2 3 n) (stack_t w_3 w_2 2 n))))
 ))
 (let (($x4906 (= ?x2012 (bvadd (_ bv1 6) (sc_t 2)))))
 (let (($x7815 (= (used_gas_t w_3 w_2 3) (+ 3 (used_gas_t w_3 w_2 2)))))
 (let ((?x4056 (sc_t 2)))
 (let ((?x2466 (bvadd (_ bv63 6) ?x4056)))
 (let ((?x8079 (stack_t w_3 w_2 2 ?x2466)))
 (let (($x1208 (not (= ((_ extract 6 6) (bvadd (_ bv1 7) (concat (_ bv0 1) (sc_t 1)))) (_ bv0 1)))))
 (let (($x1920 (exc_halt_t 1)))
 (let (($x5893 (forall ((w (_ BitVec 256)) )(let ((?x1094 (storage_t w_3 w_2 1 w)))
 (let ((?x8119 (storage_t w_3 w_2 2 w)))
 (= ?x8119 ?x1094))))
 ))
 (let (($x7996 (forall ((n (_ BitVec 6)) )(or (= (stack_t w_3 w_2 2 n) (stack_t w_3 w_2 1 n)) (bvsle (sc_t 1) n)))
 ))
 (let (($x1496 (= ?x4056 (bvadd (_ bv1 6) (sc_t 1)))))
 (let ((?x1362 (used_gas_t w_3 w_2 2)))
 (let (($x5833 (= $x1920 (or $x56 (not (= ((_ extract 6 6) (bvadd (_ bv1 7) (concat (_ bv0 1) ?x63))) (_ bv0 1)))))))
 (let (($x19 (forall ((w (_ BitVec 256)) )(let ((?x680 (storage_t w_3 w_2 0 w)))
 (let ((?x1094 (storage_t w_3 w_2 1 w)))
 (= ?x1094 ?x680))))
 ))
 (let (($x8785 (forall ((n (_ BitVec 6)) )(let ((?x63 (sc_t 0)))
 (let (($x2695 (bvsle ?x63 n)))
 (or $x2695 (= (stack_t w_3 w_2 1 n) (stack_t w_3 w_2 0 n))))))
 ))
 (let ((?x4023 (sc_t 1)))
 (let (($x10931 (= ?x4023 (bvadd (_ bv1 6) ?x63))))
 (let (($x9088 (= $x64 (or (exc_halt_s 3) (not (bvsle (_ bv0 6) (bvadd (_ bv61 6) (sc_s 3))))))))
 (let (($x5555 (forall ((w (_ BitVec 256)) )(let ((?x5733 (storage_s w_3 w_2 3 w)))
 (let ((?x6225 (storage_s w_3 w_2 4 w)))
 (= ?x6225 ?x5733))))
 ))
 (let (($x9764 (forall ((n (_ BitVec 6)) )(or (bvsle (bvadd (_ bv61 6) (sc_s 3)) n) (= (stack_s w_3 w_2 4 n) (stack_s w_3 w_2 3 n))))
 ))
 (let (($x4833 (= (used_gas_s w_3 w_2 4) (+ 3 (used_gas_s w_3 w_2 3)))))
 (let (($x9806 (= (stack_s w_3 w_2 4 (bvadd (_ bv62 6) ?x4305)) (stack_s w_3 w_2 3 (bvadd (_ bv62 6) (sc_s 3))))))
 (let (($x4474 (= (stack_s w_3 w_2 4 (bvadd (_ bv61 6) ?x4305)) (stack_s w_3 w_2 3 (bvadd (_ bv63 6) (sc_s 3))))))
 (let (($x5922 (= (stack_s w_3 w_2 4 (bvadd (_ bv63 6) ?x4305)) (stack_s w_3 w_2 3 (bvadd (_ bv61 6) (sc_s 3))))))
 (let (($x110 (not (= ((_ extract 6 6) (bvadd (_ bv1 7) (concat (_ bv0 1) (sc_s 2)))) (_ bv0 1)))))
 (let (($x247 (exc_halt_s 2)))
 (let (($x292 (exc_halt_s 3)))
 (let (($x10264 (forall ((w (_ BitVec 256)) )(let ((?x5614 (storage_s w_3 w_2 2 w)))
 (let ((?x5733 (storage_s w_3 w_2 3 w)))
 (= ?x5733 ?x5614))))
 ))
 (let (($x9930 (forall ((n (_ BitVec 6)) )(or (= (stack_s w_3 w_2 3 n) (stack_s w_3 w_2 2 n)) (bvsle (sc_s 2) n)))
 ))
 (let ((?x275 (sc_s 3)))
 (let (($x389 (= ?x275 (bvadd (_ bv1 6) (sc_s 2)))))
 (let ((?x5165 (used_gas_s w_3 w_2 3)))
 (let (($x10968 (not (= ((_ extract 6 6) (bvadd (_ bv1 7) (concat (_ bv0 1) (sc_s 1)))) (_ bv0 1)))))
 (let (($x189 (exc_halt_s 1)))
 (let (($x9893 (forall ((w (_ BitVec 256)) )(let ((?x1642 (storage_s w_3 w_2 1 w)))
 (let ((?x5614 (storage_s w_3 w_2 2 w)))
 (= ?x5614 ?x1642))))
 ))
 (let (($x3313 (forall ((n (_ BitVec 6)) )(or (= (stack_s w_3 w_2 2 n) (stack_s w_3 w_2 1 n)) (bvsle (bvadd (_ bv63 6) (sc_s 1)) n)))
 ))
 (let ((?x218 (sc_s 2)))
 (let (($x6833 (= ?x218 (bvadd (_ bv1 6) (sc_s 1)))))
 (let ((?x6787 (used_gas_s w_3 w_2 2)))
 (let ((?x154 (sc_s 1)))
 (let ((?x1806 (bvadd (_ bv63 6) ?x154)))
 (let ((?x653 (stack_s w_3 w_2 1 ?x1806)))
 (let (($x255 (= $x189 (or $x57 (not (= ((_ extract 6 6) (bvadd (_ bv1 7) (concat (_ bv0 1) ?x72))) (_ bv0 1)))))))
 (let (($x1511 (forall ((w (_ BitVec 256)) )(let ((?x214 (storage_s w_3 w_2 0 w)))
 (let ((?x1642 (storage_s w_3 w_2 1 w)))
 (= ?x1642 ?x214))))
 ))
 (let (($x1383 (forall ((n (_ BitVec 6)) )(let ((?x72 (sc_s 0)))
 (let (($x6067 (bvsle ?x72 n)))
 (or (= (stack_s w_3 w_2 1 n) (stack_s w_3 w_2 0 n)) $x6067))))
 ))
 (let (($x10892 (= ?x154 (bvadd (_ bv1 6) ?x72))))
 (let (($x8099 (forall ((w (_ BitVec 256)) )(let ((?x214 (storage_s w_3 w_2 0 w)))
 (= ?x214 (_ bv0 256))))
 ))
 (let (($x1406 (= ?x202 0)))
 (let (($x4490 (not $x57)))
 (let (($x136 (= ?x72 (_ bv0 6))))
 (and $x136 $x4490 $x1406 $x8099 (= (stack_s w_3 w_2 1 ?x72) w_3) (= (used_gas_s w_3 w_2 1) (+ 3 ?x202)) $x10892 $x1383 $x1511 $x255 (= (stack_s w_3 w_2 2 (bvadd (_ bv63 6) ?x218)) ?x653) (= (stack_s w_3 w_2 2 ?x1806) ?x653) (= ?x6787 (+ 3 (used_gas_s w_3 w_2 1))) $x6833 $x3313 $x9893 (= $x247 (or $x189 (not (bvsle (_ bv0 6) ?x1806)) $x10968)) (= (stack_s w_3 w_2 3 ?x218) w_2) (= ?x5165 (+ 3 ?x6787)) $x389 $x9930 $x10264 (= $x292 (or $x247 $x110)) $x5922 $x4474 $x9806 $x4833 (= ?x4305 ?x275) $x9764 $x5555 $x9088 (= (stack_t w_3 w_2 1 ?x63) w_2) (= (used_gas_t w_3 w_2 1) (+ 3 ?x6702)) $x10931 $x8785 $x19 $x5833 (= (stack_t w_3 w_2 2 ?x4023) w_3) (= ?x1362 (+ 3 (used_gas_t w_3 w_2 1))) $x1496 $x7996 $x5893 (= $x903 (or $x1920 $x1208)) (= (stack_t w_3 w_2 3 (bvadd (_ bv63 6) ?x2012)) ?x8079) (= (stack_t w_3 w_2 3 ?x2466) ?x8079) $x7815 $x4906 $x5951 $x614 (= $x10336 (or $x903 $x1242 (not (bvsle (_ bv0 6) ?x2466)))) $x73 $x4046 $x58 $x4417 $x6618 (not (and $x3323 $x1151 $x4577 $x6268))))))))))))))))))))))))))))))))))))))))))))))))))))))))))))))))))))))))))))
(check-sat)
(get-proof)
